
Gurobi 11.0.2 (win64) logging started Sun Aug 18 13:33:25 2024

Set parameter LogFile to value "D:\Documenti\Scuola\Laurea magistrale unibs\laurea-unibs-mkfsp\output\2024-08-18T10_03_15.889499\logs\instance10_bucket1.log"
Set parameter TimeLimit to value 350
Set parameter MIPGap to value 0
Gurobi Optimizer version 11.0.2 build v11.0.2rc0 (win64 - Windows 10.0 (19045.2))

CPU model: Intel(R) Core(TM) i5-4670 CPU @ 3.40GHz, instruction set [SSE2|AVX|AVX2]
Thread count: 4 physical cores, 4 logical processors, using up to 4 threads

Optimize a model with 806 rows, 2130 columns and 57866 nonzeros
Model fingerprint: 0x9c503d5d
Variable types: 0 continuous, 2130 integer (2080 binary)
Coefficient statistics:
  Matrix range     [1e+00, 1e+03]
  Objective range  [7e+02, 8e+03]
  Bounds range     [1e+00, 1e+00]
  RHS range        [1e+00, 7e+04]
Found heuristic solution: objective -0.0000000
Presolve time: 0.10s
Presolved: 806 rows, 2130 columns, 57866 nonzeros
Variable types: 0 continuous, 2130 integer (2080 binary)

Root relaxation: objective 2.886690e+05, 533 iterations, 0.01 seconds (0.01 work units)

    Nodes    |    Current Node    |     Objective Bounds      |     Work
 Expl Unexpl |  Obj  Depth IntInf | Incumbent    BestBd   Gap | It/Node Time

H    0     0                    288669.00000 288669.000  0.00%     -    0s
     0     0 288669.000    0  171 288669.000 288669.000  0.00%     -    0s

Explored 1 nodes (533 simplex iterations) in 0.12 seconds (0.10 work units)
Thread count was 4 (of 4 available processors)

Solution count 2: 288669 -0 

Optimal solution found (tolerance 0.00e+00)
Best objective 2.886690000000e+05, best bound 2.886690000000e+05, gap 0.0000%
